c CNF file corresponding to a (partial) station packing problem.
p cnf 6985 229
6969 6970 6971 6972 6973 6974 6975 6976 6977 6978 6979 6980 6981 6982 6983 6984 6985 0
-6969 -6970 0
-6969 -6971 0
-6969 -6972 0
-6969 -6973 0
-6969 -6974 0
-6969 -6975 0
-6969 -6976 0
-6969 -6977 0
-6969 -6978 0
-6969 -6979 0
-6969 -6980 0
-6969 -6981 0
-6969 -6982 0
-6969 -6983 0
-6969 -6984 0
-6969 -6985 0
-6970 -6971 0
-6970 -6972 0
-6970 -6973 0
-6970 -6974 0
-6970 -6975 0
-6970 -6976 0
-6970 -6977 0
-6970 -6978 0
-6970 -6979 0
-6970 -6980 0
-6970 -6981 0
-6970 -6982 0
-6970 -6983 0
-6970 -6984 0
-6970 -6985 0
-6971 -6972 0
-6971 -6973 0
-6971 -6974 0
-6971 -6975 0
-6971 -6976 0
-6971 -6977 0
-6971 -6978 0
-6971 -6979 0
-6971 -6980 0
-6971 -6981 0
-6971 -6982 0
-6971 -6983 0
-6971 -6984 0
-6971 -6985 0
-6972 -6973 0
-6972 -6974 0
-6972 -6975 0
-6972 -6976 0
-6972 -6977 0
-6972 -6978 0
-6972 -6979 0
-6972 -6980 0
-6972 -6981 0
-6972 -6982 0
-6972 -6983 0
-6972 -6984 0
-6972 -6985 0
-6973 -6974 0
-6973 -6975 0
-6973 -6976 0
-6973 -6977 0
-6973 -6978 0
-6973 -6979 0
-6973 -6980 0
-6973 -6981 0
-6973 -6982 0
-6973 -6983 0
-6973 -6984 0
-6973 -6985 0
-6974 -6975 0
-6974 -6976 0
-6974 -6977 0
-6974 -6978 0
-6974 -6979 0
-6974 -6980 0
-6974 -6981 0
-6974 -6982 0
-6974 -6983 0
-6974 -6984 0
-6974 -6985 0
-6975 -6976 0
-6975 -6977 0
-6975 -6978 0
-6975 -6979 0
-6975 -6980 0
-6975 -6981 0
-6975 -6982 0
-6975 -6983 0
-6975 -6984 0
-6975 -6985 0
-6976 -6977 0
-6976 -6978 0
-6976 -6979 0
-6976 -6980 0
-6976 -6981 0
-6976 -6982 0
-6976 -6983 0
-6976 -6984 0
-6976 -6985 0
-6977 -6978 0
-6977 -6979 0
-6977 -6980 0
-6977 -6981 0
-6977 -6982 0
-6977 -6983 0
-6977 -6984 0
-6977 -6985 0
-6978 -6979 0
-6978 -6980 0
-6978 -6981 0
-6978 -6982 0
-6978 -6983 0
-6978 -6984 0
-6978 -6985 0
-6979 -6980 0
-6979 -6981 0
-6979 -6982 0
-6979 -6983 0
-6979 -6984 0
-6979 -6985 0
-6980 -6981 0
-6980 -6982 0
-6980 -6983 0
-6980 -6984 0
-6980 -6985 0
-6981 -6982 0
-6981 -6983 0
-6981 -6984 0
-6981 -6985 0
-6982 -6983 0
-6982 -6984 0
-6982 -6985 0
-6983 -6984 0
-6983 -6985 0
-6984 -6985 0
1 2 3 4 5 6 7 8 9 10 11 12 13 14 0
-1 -2 0
-1 -3 0
-1 -4 0
-1 -5 0
-1 -6 0
-1 -7 0
-1 -8 0
-1 -9 0
-1 -10 0
-1 -11 0
-1 -12 0
-1 -13 0
-1 -14 0
-2 -3 0
-2 -4 0
-2 -5 0
-2 -6 0
-2 -7 0
-2 -8 0
-2 -9 0
-2 -10 0
-2 -11 0
-2 -12 0
-2 -13 0
-2 -14 0
-3 -4 0
-3 -5 0
-3 -6 0
-3 -7 0
-3 -8 0
-3 -9 0
-3 -10 0
-3 -11 0
-3 -12 0
-3 -13 0
-3 -14 0
-4 -5 0
-4 -6 0
-4 -7 0
-4 -8 0
-4 -9 0
-4 -10 0
-4 -11 0
-4 -12 0
-4 -13 0
-4 -14 0
-5 -6 0
-5 -7 0
-5 -8 0
-5 -9 0
-5 -10 0
-5 -11 0
-5 -12 0
-5 -13 0
-5 -14 0
-6 -7 0
-6 -8 0
-6 -9 0
-6 -10 0
-6 -11 0
-6 -12 0
-6 -13 0
-6 -14 0
-7 -8 0
-7 -9 0
-7 -10 0
-7 -11 0
-7 -12 0
-7 -13 0
-7 -14 0
-8 -9 0
-8 -10 0
-8 -11 0
-8 -12 0
-8 -13 0
-8 -14 0
-9 -10 0
-9 -11 0
-9 -12 0
-9 -13 0
-9 -14 0
-10 -11 0
-10 -12 0
-10 -13 0
-10 -14 0
-11 -12 0
-11 -13 0
-11 -14 0
-12 -13 0
-12 -14 0
-13 -14 0
